101111101001111001000110001000010100101011110100001111100101110100110111011100100101110001000111110010111011011101100110010100110001100101101000101011111001011100101110001000010001011011010000110010101101001110110110010100101001100100010100111101000000111001001000000110011001010011001011000010001010000001011001011011110011100111101011001110111100001011011011101111111011010101110100100111010111111111000101101111111111101101110101010011111100000101010101001101100111001110001001011010100001000100101101000001111100111000111110100111110010111110101100111110101010110110100101101101011010111011010101101001111000110011101000110100001111010010011111011110000110000101000000110001001111110100100011001101101110011100100100011000101001011111011010000000110001110011011001111011011101010101110110100000001100011000000110010101011111100101111001111010101100000110000111